
Gurobi 13.0.2 (win64) logging started Thu Jul 23 04:25:33 2026

Set parameter LogFile to value "E:\codes\ExactEBRP\results\gf_cplex_equivalent_gurobi_replica_round28\runs\stage1__V12_M1__c3_replica__300s\external\native_logs\R.1.1_lp.gurobi.log"
Gurobi Optimizer version 13.0.2 build v13.0.2rc1 (win64 - Windows 10.0 (19045.2))

CPU model: 12th Gen Intel(R) Core(TM) i7-12700KF, instruction set [SSE2|AVX|AVX2]
Thread count: 12 physical cores, 20 logical processors, using up to 1 threads

Non-default parameters:
TimeLimit  279.5943493
MIPGap  0
MIPGapAbs  0
LogToConsole  0
Threads  1

Optimize a model with 6225 rows, 648 columns and 59365 nonzeros (Min)
Model fingerprint: 0x0837ab2c
Model has 13 linear objective coefficients
Coefficient statistics:
  Matrix range     [2e-03, 1e+05]
  Objective range  [2e-03, 1e+00]
  Bounds range     [1e-01, 8e+01]
  RHS range        [3e-02, 1e+06]

Presolve removed 310 rows and 38 columns
Presolve time: 0.02s
Presolved: 5915 rows, 611 columns, 57864 nonzeros

Iteration    Objective       Primal Inf.    Dual Inf.      Time
       0    2.7233883e-01   1.363779e+02   0.000000e+00      0s
     698    3.5403538e-01   0.000000e+00   0.000000e+00      0s

Solved in 698 iterations and 0.06 seconds (0.18 work units)
Optimal objective  3.540353772e-01

User-callback calls 841, time in user-callback 0.00 sec
